data/solutions/recovery/wellformed/intermediate/binding/wellformed_intermediate_instance73/37.sol
Elapsed time: 0.08
Upper bound: 4541.0
Planning weighted value: 202601480.0
C[0]=4541.0
C[1]=4459.0
C[2]=4458.0
C[3]=4348.0
C[4]=4299.0
C[5]=4213.0
C[6]=3948.0
C[7]=3808.0
C[8]=3679.0
C[9]=3115.0
C[10]=3088.0
C[11]=3083.0
C[12]=3083.0
C[13]=3072.0
C[14]=1368.0
C[15]=0.0
y[0]=0
y[1]=1
y[2]=7
y[3]=2
y[4]=10
y[5]=13
y[6]=10
y[7]=3
y[8]=6
y[9]=5
y[10]=8
y[11]=14
y[12]=9
y[13]=10
y[14]=11
y[15]=12
y[16]=14
y[17]=6
y[18]=2
y[19]=9
y[20]=10
y[21]=14
y[22]=13
y[23]=13
y[24]=7
y[25]=0
y[26]=13
y[27]=3
y[28]=8
y[29]=14
y[30]=1
y[31]=3
y[32]=4
y[33]=1
y[34]=2
y[35]=8
y[36]=11
y[37]=11
y[38]=2
y[39]=9
y[40]=0
y[41]=2
y[42]=11
y[43]=4
y[44]=8
y[45]=5
y[46]=10
y[47]=3
y[48]=11
y[49]=5
y[50]=1
y[51]=14
y[52]=7
y[53]=9
y[54]=11
y[55]=13
y[56]=7
y[57]=1
y[58]=3
y[59]=11
y[60]=4
y[61]=5
y[62]=5
y[63]=14
y[64]=13
y[65]=12
y[66]=8
y[67]=7
y[68]=10
y[69]=5
y[70]=11
y[71]=14
y[72]=6
y[73]=11
y[74]=0
y[75]=12
y[76]=9
y[77]=2
y[78]=3
y[79]=3
y[80]=9
y[81]=0
y[82]=2
y[83]=5
y[84]=3
y[85]=0
y[86]=6
y[87]=0
y[88]=4
y[89]=2
y[90]=12
y[91]=8
y[92]=6
y[93]=11
y[94]=7
y[95]=2
y[96]=4
y[97]=3
y[98]=1
y[99]=6
y[100]=4
y[101]=7
y[102]=9
y[103]=5
y[104]=8
y[105]=1
y[106]=2
y[107]=3
