data/solutions/recovery/wellformed/intermediate/binding/wellformed_intermediate_instance73/37.log

Log started (V12.6.3.0) Fri Apr 20 17:50:21 2018

New value for default parallel thread count: 1

Problem '/tmp/tmpOxDxB3.pyomo.lp' read.
Read time = 0.03 sec. (2.14 ticks)

Problem name         : /tmp/tmpOxDxB3.pyomo.lp
Objective sense      : Minimize
Variables            :    1746  [Nneg: 1,  Binary: 1728,  General Integer: 17]
Objective nonzeros   :       1
Linear constraints   :     250  [Less: 124,  Equal: 126]
  Nonzeros           :  155797
  RHS nonzeros       :     109

Variables            : Min LB: 0.000000         Max UB: 1.000000       
Objective nonzeros   : Min   : 1.000000         Max   : 1.000000       
Linear constraints   :
  Nonzeros           : Min   : 1.000000         Max   : 1715.000       
  RHS nonzeros       : Min   : 1.000000         Max   : 1.000000       
Tried aggregator 2 times.
MIP Presolve eliminated 206 rows and 1520 columns.
Aggregator did 15 substitutions.
Reduced MIP has 29 rows, 211 columns, and 435 nonzeros.
Reduced MIP has 210 binaries, 1 generals, 0 SOSs, and 0 indicators.
Presolve time = 0.01 sec. (9.76 ticks)
Found incumbent of value 16884.000000 after 0.01 sec. (13.50 ticks)
Probing time = 0.00 sec. (0.27 ticks)
Tried aggregator 1 time.
Reduced MIP has 29 rows, 211 columns, and 435 nonzeros.
Reduced MIP has 210 binaries, 1 generals, 0 SOSs, and 0 indicators.
Presolve time = 0.00 sec. (0.36 ticks)
Probing time = 0.00 sec. (0.27 ticks)
Clique table members: 14.
MIP emphasis: balance optimality and feasibility.
MIP search method: dynamic search.
Parallel mode: none, using 1 thread.
Root relaxation solution time = 0.00 sec. (0.19 ticks)

        Nodes                                         Cuts/
   Node  Left     Objective  IInf  Best Integer    Best Bound    ItCnt     Gap

*     0+    0                        16884.0000     4541.0000            73.10%
      0     0     4541.0000    11    16884.0000     4541.0000       24   73.10%
*     0+    0                         4541.0000     4541.0000             0.00%
      0     0        cutoff           4541.0000     4541.0000       24    0.00%
Elapsed time = 0.01 sec. (14.95 ticks, tree = 0.01 MB, solutions = 2)

Root node processing (before b&c):
  Real time             =    0.01 sec. (15.01 ticks)
Sequential b&c:
  Real time             =    0.00 sec. (0.00 ticks)
                          ------------
Total (root+branch&cut) =    0.01 sec. (15.01 ticks)

Solution pool: 2 solutions saved.

MIP - Integer optimal solution:  Objective =  4.5410000000e+03
Solution time =    0.01 sec.  Iterations = 24  Nodes = 0
Deterministic time = 15.02 ticks  (1058.96 ticks/sec)


Incumbent solution written to file '/tmp/tmpgc_p7r.cplex.sol'.

Log started (V12.6.3.0) Fri Apr 20 17:53:23 2018

New value for default parallel thread count: 1

Problem '/tmp/tmpiy6HmI.pyomo.lp' read.
Read time = 0.03 sec. (2.14 ticks)

Problem name         : /tmp/tmpiy6HmI.pyomo.lp
Objective sense      : Minimize
Variables            :    1746  [Nneg: 1,  Binary: 1728,  General Integer: 17]
Objective nonzeros   :       1
Linear constraints   :     250  [Less: 124,  Equal: 126]
  Nonzeros           :  155797
  RHS nonzeros       :     109

Variables            : Min LB: 0.000000         Max UB: 1.000000       
Objective nonzeros   : Min   : 1.000000         Max   : 1.000000       
Linear constraints   :
  Nonzeros           : Min   : 1.000000         Max   : 1715.000       
  RHS nonzeros       : Min   : 1.000000         Max   : 1.000000       
Tried aggregator 2 times.
MIP Presolve eliminated 206 rows and 1520 columns.
Aggregator did 15 substitutions.
Reduced MIP has 29 rows, 211 columns, and 435 nonzeros.
Reduced MIP has 210 binaries, 1 generals, 0 SOSs, and 0 indicators.
Presolve time = 0.01 sec. (9.76 ticks)
Found incumbent of value 16884.000000 after 0.01 sec. (13.50 ticks)
Probing time = 0.00 sec. (0.27 ticks)
Tried aggregator 1 time.
Reduced MIP has 29 rows, 211 columns, and 435 nonzeros.
Reduced MIP has 210 binaries, 1 generals, 0 SOSs, and 0 indicators.
Presolve time = 0.00 sec. (0.36 ticks)
Probing time = 0.00 sec. (0.27 ticks)
Clique table members: 14.
MIP emphasis: balance optimality and feasibility.
MIP search method: dynamic search.
Parallel mode: none, using 1 thread.
Root relaxation solution time = 0.00 sec. (0.19 ticks)

        Nodes                                         Cuts/
   Node  Left     Objective  IInf  Best Integer    Best Bound    ItCnt     Gap

*     0+    0                        16884.0000     4541.0000            73.10%
      0     0     4541.0000    11    16884.0000     4541.0000       24   73.10%
*     0+    0                         4541.0000     4541.0000             0.00%
      0     0        cutoff           4541.0000     4541.0000       24    0.00%
Elapsed time = 0.01 sec. (14.95 ticks, tree = 0.01 MB, solutions = 2)

Root node processing (before b&c):
  Real time             =    0.01 sec. (15.01 ticks)
Sequential b&c:
  Real time             =    0.00 sec. (0.00 ticks)
                          ------------
Total (root+branch&cut) =    0.01 sec. (15.01 ticks)

Solution pool: 2 solutions saved.

MIP - Integer optimal solution:  Objective =  4.5410000000e+03
Solution time =    0.01 sec.  Iterations = 24  Nodes = 0
Deterministic time = 15.02 ticks  (1091.78 ticks/sec)


Incumbent solution written to file '/tmp/tmpkCde6_.cplex.sol'.
